* Problem:    SC50B-pow2-prescaled
* Class:      LP
* Rows:       48
* Columns:    76
* Non-zeros:  146
* Format:     Free MPS
*
NAME SC50B-pow2-prescaled
ROWS
 N R0000000
 E R0000001
 E R0000002
 E R0000003
 E R0000004
 E R0000005
 E R0000006
 E R0000007
 E R0000008
 E R0000009
 E R0000010
 E R0000011
 E R0000012
 E R0000013
 E R0000014
 E R0000015
 E R0000016
 E R0000017
 E R0000018
 E R0000019
 E R0000020
 E R0000021
 E R0000022
 E R0000023
 E R0000024
 E R0000025
 E R0000026
 E R0000027
 E R0000028
 E R0000029
 E R0000030
 E R0000031
 E R0000032
 E R0000033
 E R0000034
 E R0000035
 E R0000036
 E R0000037
 E R0000038
 E R0000039
 E R0000040
 E R0000041
 E R0000042
 E R0000043
 E R0000044
 E R0000045
 E R0000046
 E R0000047
 E R0000048
COLUMNS
 c0 R0000021 24 R0000002 -8
 c1 R0000021 24 R0000003 -8
 c2 R0000021 24 R0000004 -8
 c3 R0000000 -4 R0000005 4.4
 c3 R0000001 4
 c4 R0000027 2.4 R0000026 1.6
 c4 R0000006 4 R0000001 -4
 c5 R0000022 -8 R0000007 -8
 c5 R0000002 8
 c6 R0000023 -8 R0000008 -8
 c6 R0000003 8
 c7 R0000024 -8 R0000009 -8
 c7 R0000004 8
 c8 R0000025 -8 R0000022 8
 c9 R0000026 -8 R0000023 8
 c10 R0000027 -8 R0000024 8
 c11 R0000025 12 R0000007 -4
 c12 R0000025 12 R0000008 -4
 c13 R0000025 12 R0000009 -4
 c14 R0000010 4.4 R0000006 4
 c14 R0000005 -4
 c15 R0000033 4.8 R0000032 3.2
 c15 R0000011 8 R0000006 -8
 c16 R0000028 -4 R0000012 -4
 c16 R0000007 4
 c17 R0000029 -4 R0000013 -4
 c17 R0000008 4
 c18 R0000030 -4 R0000014 -4
 c18 R0000009 4
 c19 R0000031 -4 R0000028 4
 c20 R0000032 -4 R0000029 4
 c21 R0000033 -4 R0000030 4
 c22 R0000031 12 R0000012 -4
 c23 R0000031 12 R0000013 -4
 c24 R0000031 12 R0000014 -4
 c25 R0000015 4.4 R0000011 4
 c25 R0000010 -4
 c26 R0000039 4.8 R0000038 3.2
 c26 R0000016 8 R0000011 -8
 c27 R0000034 -4 R0000017 -4
 c27 R0000012 4
 c28 R0000035 -4 R0000018 -4
 c28 R0000013 4
 c29 R0000036 -4 R0000019 -4
 c29 R0000014 4
 c30 R0000037 -4 R0000034 4
 c31 R0000038 -4 R0000035 4
 c32 R0000039 -4 R0000036 4
 c33 R0000037 6 R0000017 -2
 c34 R0000037 12 R0000018 -4
 c35 R0000037 12 R0000019 -4
 c36 R0000020 4.4 R0000016 4
 c36 R0000015 -4
 c37 R0000045 9.6 R0000044 6.4
 c37 R0000016 -16
 c38 R0000040 -4 R0000017 4
 c39 R0000041 -1 R0000018 1
 c40 R0000042 -2 R0000019 2
 c41 R0000043 -4 R0000040 4
 c42 R0000044 -1 R0000041 1
 c43 R0000045 -2 R0000042 2
 c44 R0000046 -0.7 R0000043 3
 c45 R0000047 -1 R0000046 0.3
 c45 R0000043 3
 c46 R0000048 -1 R0000046 0.3
 c46 R0000043 3
 c47 R0000048 2.4 R0000047 1.6
 c47 R0000020 -4
 c48 R0000021 8
 c49 R0000022 16
 c50 R0000023 16
 c51 R0000024 16
 c52 R0000025 16
 c53 R0000026 16
 c54 R0000027 16
 c55 R0000028 16
 c56 R0000029 16
 c57 R0000030 16
 c58 R0000031 16
 c59 R0000032 16
 c60 R0000033 16
 c61 R0000034 16
 c62 R0000035 16
 c63 R0000036 16
 c64 R0000037 16
 c65 R0000038 16
 c66 R0000039 16
 c67 R0000040 8
 c68 R0000041 8
 c69 R0000042 8
 c70 R0000043 8
 c71 R0000044 8
 c72 R0000045 8
 c73 R0000046 2
 c74 R0000047 2
 c75 R0000048 2
RHS
 RHS1 R0000021 300 R0000025 300
 RHS1 R0000031 300 R0000037 300
 RHS1 R0000043 300
ENDATA
